workspace_BA/FooSearchTree/input_graphs/reference_set_c2/watts_strog_n_20_k_6_p_0.7_0.gr
p td 20 60
0 1
0 5
0 6
0 8
0 10
0 2
0 7
0 16
1 3
1 4
1 5
1 16
1 6
2 12
2 14
2 11
2 15
2 13
2 9
2 17
3 5
3 6
3 18
3 16
3 14
3 7
3 10
4 6
4 7
4 19
4 17
4 5
5 18
5 10
5 19
6 19
6 17
7 8
8 10
8 15
8 18
8 16
8 11
9 10
9 17
10 11
10 12
11 12
11 13
12 13
12 17
12 18
13 14
13 16
13 15
14 15
15 19
15 16
15 18
17 19
