matlab_plots/results/reference_set/watts_strog_n_20_k_6_p_0.7_0.res
file: watts_strog_n_20_k_6_p_0.7_0.gr
total_nodes: 20
c_par: 2
dens: 3.0
lowest_k: 9
solved_k: 13
redu_time: 0.016
redu_nodes: 20
redu_edges: 60
heur_time: 0.000
heur_nodes: 19
heur_edges: 60
heur_k_used: 0
kernel_times: 0.000;0.000;0.000;0.016;0.000;
kernel_nodes: 20;20;20;20;20;
kernel_edges: 60;60;60;60;60;
hs_st_times: 0.000;0.000;0.000;0.000;0.000;
pipe_2_sum: 0.032
pipe_2_res: true
pipe_2_timeout: false
